c FILE /home/rafael/Documents/HappySet/MIHS/inputs/happygen/output/graph_scale_free_k3_p0.3_v100_20241127_083812.txt
c SOURCE This is a scale-free graph formed for the happy graph colouring problem.
c DESCRIPTION It was generated using the problem generator of Rhyd Lewis
c
c GRAPH STATS
c Seed                             = -1453001285
c Number of Nodes                  = 100
c Number of colours k              = 3
c Number of pre-assignments        = 30
c Number of links per new node     = 5
c Density                          = 0.0979798
c 
c The degrees of nodes 1 to 100, respectively, are as follows 
c [32, 31, 28, 27, 27, 26, 25, 23, 23, 22, 22, 18, 17, 16, 14, 13, 13, 13, 13, 13, 12, 12, 11, 11, 11, 11, 
c  11, 11, 10, 10, 10, 10, 10, 9, 9, 9, 9, 9, 8, 8, 8, 8, 8, 8, 8, 8, 7, 7, 7, 7, 7, 
c  7, 7, 7, 7, 7, 6, 6, 6, 6, 6, 6, 6, 6, 6, 6, 6, 6, 6, 6, 6, 5, 5, 5, 5, 5, 
c  5, 5, 5, 5, 5, 5, 5, 5, 5, 5, 5, 5, 5, 5, 5, 5, 5, 5, 5, 5, 5, 5, 5, 5] 
c  
p edge 100 485 3
e 1 2
e 1 3
e 1 4
e 1 5
e 1 6
e 1 10
e 1 11
e 1 12
e 1 17
e 1 18
e 1 19
e 1 21
e 1 22
e 1 23
e 1 25
e 1 27
e 1 29
e 1 30
e 1 31
e 1 33
e 1 35
e 1 39
e 1 43
e 1 46
e 1 49
e 1 53
e 1 73
e 1 82
e 1 90
e 1 92
e 1 93
e 1 99
e 2 3
e 2 4
e 2 5
e 2 8
e 2 10
e 2 11
e 2 14
e 2 15
e 2 16
e 2 22
e 2 29
e 2 42
e 2 43
e 2 44
e 2 45
e 2 47
e 2 48
e 2 49
e 2 57
e 2 58
e 2 59
e 2 61
e 2 66
e 2 75
e 2 79
e 2 81
e 2 85
e 2 90
e 2 91
e 2 92
e 3 4
e 3 5
e 3 7
e 3 8
e 3 9
e 3 10
e 3 11
e 3 15
e 3 21
e 3 22
e 3 24
e 3 25
e 3 27
e 3 29
e 3 34
e 3 36
e 3 40
e 3 48
e 3 50
e 3 55
e 3 67
e 3 72
e 3 78
e 3 80
e 3 96
e 3 99
e 4 5
e 4 7
e 4 8
e 4 9
e 4 10
e 4 11
e 4 15
e 4 23
e 4 24
e 4 26
e 4 39
e 4 40
e 4 41
e 4 47
e 4 51
e 4 52
e 4 60
e 4 70
e 4 75
e 4 76
e 4 77
e 4 81
e 4 85
e 4 99
e 5 7
e 5 8
e 5 9
e 5 10
e 5 13
e 5 20
e 5 21
e 5 24
e 5 25
e 5 29
e 5 31
e 5 32
e 5 33
e 5 50
e 5 53
e 5 55
e 5 57
e 5 58
e 5 59
e 5 69
e 5 71
e 5 74
e 5 96
e 6 7
e 6 9
e 6 10
e 6 11
e 6 12
e 6 14
e 6 15
e 6 17
e 6 18
e 6 19
e 6 20
e 6 32
e 6 35
e 6 38
e 6 39
e 6 43
e 6 48
e 6 58
e 6 59
e 6 64
e 6 65
e 6 68
e 6 74
e 6 84
e 6 88
e 7 8
e 7 9
e 7 10
e 7 14
e 7 15
e 7 16
e 7 17
e 7 24
e 7 28
e 7 30
e 7 37
e 7 39
e 7 53
e 7 61
e 7 67
e 7 73
e 7 78
e 7 81
e 7 91
e 7 98
e 7 100
e 8 10
e 8 12
e 8 13
e 8 14
e 8 17
e 8 19
e 8 22
e 8 23
e 8 41
e 8 42
e 8 47
e 8 53
e 8 59
e 8 67
e 8 72
e 8 73
e 8 93
e 8 94
e 9 10
e 9 11
e 9 13
e 9 16
e 9 20
e 9 26
e 9 32
e 9 33
e 9 40
e 9 49
e 9 51
e 9 52
e 9 54
e 9 56
e 9 58
e 9 64
e 9 82
e 9 87
e 10 21
e 10 23
e 10 29
e 10 34
e 10 46
e 10 47
e 10 49
e 10 50
e 10 55
e 10 56
e 10 57
e 10 62
e 10 71
e 11 13
e 11 21
e 11 24
e 11 25
e 11 31
e 11 34
e 11 35
e 11 42
e 11 43
e 11 44
e 11 54
e 11 56
e 11 65
e 11 72
e 11 79
e 11 82
e 12 14
e 12 16
e 12 20
e 12 21
e 12 22
e 12 27
e 12 33
e 12 65
e 12 66
e 12 69
e 12 73
e 12 77
e 12 78
e 12 79
e 12 98
e 13 27
e 13 32
e 13 33
e 13 35
e 13 40
e 13 44
e 13 57
e 13 64
e 13 71
e 13 87
e 13 90
e 13 95
e 13 100
e 14 25
e 14 28
e 14 36
e 14 40
e 14 61
e 14 68
e 14 70
e 14 73
e 14 74
e 14 77
e 14 99
e 15 16
e 15 18
e 15 23
e 15 40
e 15 52
e 15 57
e 15 70
e 15 83
e 15 87
e 16 28
e 16 29
e 16 34
e 16 41
e 16 51
e 16 74
e 16 81
e 16 91
e 17 18
e 17 20
e 17 22
e 17 34
e 17 35
e 17 53
e 17 78
e 17 91
e 17 94
e 18 26
e 18 39
e 18 48
e 18 59
e 18 60
e 18 63
e 18 89
e 18 92
e 18 100
e 19 21
e 19 26
e 19 31
e 19 40
e 19 41
e 19 51
e 19 65
e 19 68
e 19 75
e 19 94
e 20 26
e 20 28
e 20 45
e 20 55
e 20 77
e 20 79
e 20 80
e 20 81
e 21 27
e 21 30
e 21 61
e 21 74
e 21 77
e 22 30
e 22 42
e 22 48
e 22 83
e 22 87
e 22 93
e 23 30
e 23 37
e 23 42
e 23 54
e 23 76
e 23 95
e 24 28
e 24 62
e 24 70
e 24 83
e 24 84
e 24 93
e 25 38
e 25 41
e 25 45
e 25 58
e 25 63
e 25 72
e 26 38
e 26 52
e 26 60
e 26 69
e 26 76
e 26 84
e 27 38
e 27 51
e 27 62
e 27 75
e 27 82
e 27 88
e 28 37
e 28 44
e 28 45
e 28 50
e 28 65
e 28 66
e 29 39
e 29 60
e 29 64
e 29 93
e 30 36
e 30 54
e 30 63
e 30 72
e 30 86
e 31 35
e 31 37
e 31 38
e 31 61
e 31 75
e 31 97
e 32 64
e 32 79
e 32 80
e 32 83
e 32 90
e 32 92
e 33 86
e 33 89
e 33 96
e 33 97
e 33 98
e 34 47
e 34 67
e 34 71
e 34 86
e 35 44
e 35 52
e 35 63
e 36 41
e 36 59
e 36 62
e 36 85
e 36 87
e 36 96
e 37 42
e 37 50
e 37 54
e 37 82
e 37 88
e 38 46
e 38 56
e 38 84
e 38 85
e 39 63
e 39 80
e 40 85
e 41 64
e 41 88
e 42 68
e 42 71
e 43 45
e 43 58
e 43 94
e 43 95
e 44 46
e 44 62
e 44 66
e 45 56
e 45 89
e 45 100
e 46 67
e 46 86
e 46 94
e 46 99
e 47 49
e 47 84
e 48 66
e 48 88
e 49 76
e 49 96
e 50 60
e 50 97
e 51 83
e 51 95
e 52 68
e 52 90
e 53 67
e 53 69
e 54 80
e 54 98
e 55 66
e 55 69
e 55 98
e 56 70
e 56 89
e 57 89
e 60 76
e 61 100
e 62 78
e 63 97
e 65 86
e 68 91
e 69 95
e 70 92
e 71 97
n 2 3
n 5 3
n 10 3
n 12 1
n 26 3
n 27 1
n 28 2
n 30 2
n 31 3
n 34 3
n 41 1
n 49 3
n 52 3
n 54 2
n 57 3
n 59 3
n 63 2
n 64 1
n 70 1
n 71 3
n 73 1
n 76 3
n 80 2
n 81 3
n 82 1
n 84 3
n 85 3
n 91 3
n 95 3
n 100 1
